NAME : random1
TYPE : HCP
COMMENT : 
DIMENSION : 360
EDGE_DATA_FORMAT : EDGE_LIST
EDGE_DATA_SECTION
1 7
1 13
2 5
2 8
2 14
3 4
3 9
3 15
4 10
4 16
5 11
5 17
6 7
6 11
6 12
6 18
7 19
8 20
9 21
10 22
11 23
12 24
13 25
14 15
14 16
14 26
15 23
15 27
16 17
16 28
17 22
17 29
18 30
19 31
20 32
21 33
22 34
23 35
24 36
25 31
25 37
26 38
27 28
27 35
27 39
28 31
28 40
29 41
30 32
30 42
31 43
32 34
32 44
33 45
34 46
35 47
36 48
37 49
38 40
38 50
39 51
40 43
40 52
41 53
42 54
43 45
43 55
44 56
45 57
46 58
47 59
48 60
49 52
49 58
49 61
50 57
50 62
51 55
51 63
52 54
52 57
52 64
53 65
54 55
54 57
54 66
55 67
56 68
57 69
58 70
59 71
60 72
61 73
62 74
63 69
63 75
64 76
65 67
65 70
65 77
66 69
66 78
67 79
68 71
68 80
69 81
70 82
71 83
72 84
73 74
73 85
74 82
74 86
75 77
75 80
75 81
75 87
76 78
76 80
76 88
77 79
77 89
78 90
79 91
80 92
81 93
82 83
82 94
83 95
84 96
85 87
85 93
85 95
85 97
86 87
86 91
86 98
87 99
88 94
88 100
89 92
89 101
90 102
91 103
92 104
93 105
94 106
95 107
96 108
97 98
97 109
98 107
98 110
99 101
99 106
99 111
100 104
100 112
101 102
101 107
101 113
102 114
103 105
103 107
103 115
104 116
105 107
105 117
106 118
107 119
108 120
109 115
109 118
109 121
110 118
110 122
111 123
112 113
112 116
112 119
112 124
113 125
114 126
115 116
115 118
115 127
116 128
117 129
118 130
119 131
120 132
121 131
121 133
122 123
122 130
122 134
123 124
123 135
124 136
125 128
125 129
125 137
126 129
126 130
126 138
127 130
127 139
128 140
129 141
130 131
130 142
131 143
132 144
133 137
133 142
133 145
134 141
134 146
135 139
135 147
136 148
137 149
138 150
139 151
140 152
141 142
141 153
142 154
143 155
144 156
145 153
145 157
146 158
147 151
147 152
147 159
148 153
148 154
148 155
148 160
149 150
149 161
150 155
150 162
151 155
151 163
152 164
153 154
153 155
153 165
154 166
155 167
156 168
157 158
157 160
157 162
157 165
157 169
158 167
158 170
159 164
159 171
160 172
161 173
162 165
162 174
163 175
164 176
165 167
165 177
166 178
167 179
168 180
169 181
170 172
170 182
171 174
171 178
171 183
172 184
173 185
174 186
175 187
176 188
177 189
178 190
179 191
180 192
181 185
181 189
181 193
182 190
182 194
183 191
183 195
184 196
185 197
186 187
186 198
187 199
188 189
188 190
188 200
189 201
190 202
191 203
192 204
193 195
193 201
193 205
194 206
195 207
196 208
197 209
198 210
199 211
200 212
201 213
202 214
203 215
204 216
205 207
205 208
205 214
205 217
206 209
206 211
206 212
206 213
206 218
207 208
207 219
208 220
209 221
210 212
210 222
211 223
212 215
212 224
213 225
214 226
215 227
216 228
217 229
218 219
218 225
218 230
219 231
220 222
220 227
220 232
221 233
222 223
222 227
222 234
223 235
224 236
225 226
225 227
225 237
226 238
227 239
228 240
229 234
229 236
229 237
229 241
230 234
230 239
230 242
231 239
231 243
232 244
233 245
234 235
234 239
234 246
235 247
236 239
236 248
237 249
238 250
239 251
240 252
241 250
241 253
242 254
243 255
244 246
244 256
245 257
246 248
246 258
247 249
247 251
247 259
248 260
249 261
250 262
251 263
252 264
253 254
253 265
254 266
255 267
256 259
256 262
256 268
257 269
258 262
258 270
259 271
260 262
260 272
261 273
262 274
263 275
264 276
265 274
265 277
266 268
266 270
266 278
267 272
267 279
268 271
268 273
268 280
269 271
269 281
270 282
271 275
271 283
272 284
273 285
274 286
275 287
276 288
277 283
277 289
278 281
278 284
278 290
279 280
279 284
279 291
280 285
280 292
281 293
282 294
283 295
284 296
285 297
286 298
287 299
288 300
289 290
289 301
290 291
290 302
291 292
291 293
291 294
291 296
291 303
292 296
292 304
293 299
293 305
294 306
295 307
296 299
296 308
297 309
298 299
298 310
299 311
300 312
301 305
301 311
301 313
302 305
302 309
302 311
302 314
303 305
303 308
303 315
304 310
304 316
305 317
306 308
306 318
307 319
308 320
309 321
310 322
311 323
312 324
313 316
313 317
313 320
313 322
313 325
314 317
314 318
314 322
314 326
315 327
316 319
316 328
317 318
317 322
317 329
318 323
318 330
319 321
319 331
320 332
321 323
321 333
322 334
323 335
324 336
325 332
325 337
326 333
326 338
327 339
328 340
329 333
329 341
330 342
331 333
331 343
332 344
333 345
334 346
335 347
336 348
337 347
337 349
338 350
339 341
339 347
339 351
340 352
341 344
341 353
342 345
342 354
343 346
343 355
344 346
344 347
344 356
345 357
346 358
347 359
348 360
349 350
351 352
353 354
355 356
357 358
359 360
-1
EOF
